4 
5  24 39 54 
6  07 14 22 29 39 46 54 
7  01 09 16 24 31 39 46 54 
8  01 09 16 24 31 39 46 54 
9  01 09 16 24 31 39 46 54 
10  01 13 20 28 35 43 50 58 
11  05 13 20 28 35 43 50 58 
12  05 13 20 28 35 43 50 58 
13  05 13 20 28 35 43 50 58 
14  05 13 20 28 35 43 50 58 
15  05 13 24 32 39 46 54 
16  02 09 17 24 32 39 47 54 
17  02 09 17 24 32 39 47 54 
18  02 09 18 24 33 39 48 54 
19  03 09 17 28 35 43 50 58 
20  05 15 25 33 41 55 
21  09 24 39 54 
22  09 24 35 50 
23  05 18 38 
0 
